<?xml version = "1.0" standalone="yes"?>
<!-- This file has been generated by DOcplex version 2.23.222  -->
<CPLEXSolution version="1.0">
 <header
   problemName="CVRP"
   objectiveValue="9805.15"
  />
 <variables>
  <variable name="x_0_1" index="0" value="1.00000"/>
  <variable name="x_0_2" index="1" value="1.00000"/>
  <variable name="x_0_3" index="2" value="1.00000"/>
  <variable name="x_0_4" index="3" value="1.00000"/>
  <variable name="x_0_10" index="9" value="1.00000"/>
  <variable name="x_0_11" index="10" value="1.00000"/>
  <variable name="x_0_12" index="11" value="1.00000"/>
  <variable name="x_0_13" index="12" value="1.00000"/>
  <variable name="x_0_16" index="15" value="1.00000"/>
  <variable name="x_1_7" index="22" value="1.00000"/>
  <variable name="x_2_6" index="37" value="1.00000"/>
  <variable name="x_3_8" index="55" value="1.00000"/>
  <variable name="x_4_0" index="64" value="1.00000"/>
  <variable name="x_5_0" index="80" value="1.00000"/>
  <variable name="x_6_0" index="96" value="1.00000"/>
  <variable name="x_7_15" index="126" value="1.00000"/>
  <variable name="x_8_0" index="128" value="1.00000"/>
  <variable name="x_9_0" index="144" value="1.00000"/>
  <variable name="x_10_14" index="173" value="1.00000"/>
  <variable name="x_11_5" index="181" value="1.00000"/>
  <variable name="x_12_0" index="192" value="1.00000"/>
  <variable name="x_13_0" index="208" value="1.00000"/>
  <variable name="x_14_0" index="224" value="1.00000"/>
  <variable name="x_15_0" index="240" value="1.00000"/>
  <variable name="x_16_9" index="265" value="1.00000"/>
  <variable name="u_1" index="272" value="17.00000"/>
  <variable name="u_2" index="273" value="35.00000"/>
  <variable name="u_3" index="274" value="15.00000"/>
  <variable name="u_4" index="275" value="46.00000"/>
  <variable name="u_5" index="276" value="50.00000"/>
  <variable name="u_6" index="277" value="50.00000"/>
  <variable name="u_7" index="278" value="24.00000"/>
  <variable name="u_8" index="279" value="50.00000"/>
  <variable name="u_9" index="280" value="50.00000"/>
  <variable name="u_10" index="281" value="12.00000"/>
  <variable name="u_11" index="282" value="8.00000"/>
  <variable name="u_12" index="283" value="33.00000"/>
  <variable name="u_13" index="284" value="47.00000"/>
  <variable name="u_14" index="285" value="50.00000"/>
  <variable name="u_15" index="286" value="44.00000"/>
  <variable name="u_16" index="287" value="28.00000"/>
 </variables>
</CPLEXSolution>
